
Gurobi 9.0.1 (linux64) logging started Fri May  1 10:13:09 2020

Gurobi Optimizer version 9.0.1 build v9.0.1rc0 (linux64)
Optimize a model with 5063 rows, 4412 columns and 23494 nonzeros
Model fingerprint: 0x877d673d
Variable types: 0 continuous, 4412 integer (4352 binary)
Coefficient statistics:
  Matrix range     [1e+00, 2e+01]
  Objective range  [5e+00, 1e+02]
  Bounds range     [1e+00, 1e+00]
  RHS range        [1e+00, 2e+01]

User MIP start produced solution with objective 916 (0.01s)
Loaded user MIP start with objective 916

Presolve removed 3544 rows and 752 columns
Presolve time: 2.37s
Presolved: 1519 rows, 3660 columns, 12090 nonzeros
Variable types: 0 continuous, 3660 integer (3630 binary)

Root relaxation: objective 5.231333e+02, 883 iterations, 0.02 seconds

    Nodes    |    Current Node    |     Objective Bounds      |     Work
 Expl Unexpl |  Obj  Depth IntInf | Incumbent    BestBd   Gap | It/Node Time

     0     0  523.13333    0   72  916.00000  523.13333  42.9%     -    2s
     0     0  610.00000    0   75  916.00000  610.00000  33.4%     -    2s
     0     0  610.00000    0   73  916.00000  610.00000  33.4%     -    2s
     0     0  615.24000    0   94  916.00000  615.24000  32.8%     -    2s
     0     0  615.54545    0   96  916.00000  615.54545  32.8%     -    2s
     0     0  615.56471    0   97  916.00000  615.56471  32.8%     -    2s
     0     0  621.00000    0   96  916.00000  621.00000  32.2%     -    2s
     0     0  621.00000    0   96  916.00000  621.00000  32.2%     -    2s
     0     0  625.60000    0   99  916.00000  625.60000  31.7%     -    2s
     0     0  625.60000    0  102  916.00000  625.60000  31.7%     -    2s
     0     0  625.60000    0   97  916.00000  625.60000  31.7%     -    2s
     0     0  625.60000    0   97  916.00000  625.60000  31.7%     -    3s
     0     0  625.60000    0   80  916.00000  625.60000  31.7%     -    3s
     0     0  625.60000    0   83  916.00000  625.60000  31.7%     -    3s
     0     0  625.60000    0   89  916.00000  625.60000  31.7%     -    3s
     0     0  625.60000    0   98  916.00000  625.60000  31.7%     -    3s
     0     0  625.60000    0   96  916.00000  625.60000  31.7%     -    3s
     0     0  625.60000    0   96  916.00000  625.60000  31.7%     -    3s
H    0     0                     823.0000000  625.60000  24.0%     -    4s
     0     0  625.60000    0   25  823.00000  625.60000  24.0%     -    4s
     0     0  625.60000    0   27  823.00000  625.60000  24.0%     -    4s
     0     0  625.60000    0   51  823.00000  625.60000  24.0%     -    4s
     0     0  625.60000    0   53  823.00000  625.60000  24.0%     -    4s
     0     0  625.60000    0   53  823.00000  625.60000  24.0%     -    4s
     0     0  625.60000    0   66  823.00000  625.60000  24.0%     -    4s
     0     0  625.60000    0   60  823.00000  625.60000  24.0%     -    4s
     0     0  628.20000    0   62  823.00000  628.20000  23.7%     -    4s
     0     0  628.40000    0   59  823.00000  628.40000  23.6%     -    4s
     0     0  628.40000    0   65  823.00000  628.40000  23.6%     -    4s
     0     0  628.40000    0   60  823.00000  628.40000  23.6%     -    4s
     0     0  628.40000    0   66  823.00000  628.40000  23.6%     -    4s
     0     0  628.40000    0   68  823.00000  628.40000  23.6%     -    4s
     0     0  628.40000    0   46  823.00000  628.40000  23.6%     -    5s
     0     0  628.40000    0   51  823.00000  628.40000  23.6%     -    5s
     0     0  628.40000    0   43  823.00000  628.40000  23.6%     -    5s
     0     0  628.40000    0   49  823.00000  628.40000  23.6%     -    5s
     0     0  628.40000    0   57  823.00000  628.40000  23.6%     -    5s
     0     0  628.40000    0   48  823.00000  628.40000  23.6%     -    5s
     0     2  634.13333    0   48  823.00000  634.13333  22.9%     -    5s
H  352   190                     800.0000000  634.13333  20.7%  10.1    6s
   568   363  678.33333   17   35  800.00000  637.85714  20.3%  16.8   10s
*  660   362              63     776.0000000  637.85714  17.8%  18.3   11s
H  663   336                     757.0000000  637.85714  15.7%  18.2   11s
*  772   238              67     651.0000000  643.03896  1.22%  17.3   12s

Cutting planes:
  Learned: 4
  Gomory: 4
  Cover: 1
  Implied bound: 3
  MIR: 11
  StrongCG: 1
  Flow cover: 17
  Inf proof: 1
  Zero half: 13
  Relax-and-lift: 1

Explored 800 nodes (21952 simplex iterations) in 12.38 seconds
Thread count was 1 (of 40 available processors)

Solution count 6: 651 757 776 ... 916

Optimal solution found (tolerance 1.00e-04)
Best objective 6.510000000000e+02, best bound 6.510000000000e+02, gap 0.0000%

User-callback calls 6459, time in user-callback 0.01 sec
